--- Job dynamic_calib Start 06/08/23 15:55:06 42.5.0 cf11b917 WEX-WEI x86 64bit/MS Windows
--- Applying:
    C:\GAMS\42\gmsprmNT.txt
--- GAMS Parameters defined
    Input h:\windc\github\windc_build\household\dynamic_calib.gms
    Output h:\windc\github\windc_build\household\lst\dynamic_calib_2015.lst
    ScrDir h:\windc\github\windc_build\household\225b\
    SysDir C:\GAMS\42\
    LogOption 4
    LogFile h:\windc\github\windc_build\household\lst\dynamic_calib_2015.log
    --year 2015
Licensee: Small MUD - 5 User License                     G230511|0002AO-GEN
          University of Wisconsin-Madison, Agricultural & Applied EconDC289
          C:\Users\Thomas F. Rutherford\Documents\GAMS\gamslice.txt
          License Admin: Thomas F. Rutherford, rutherford@aae.wisc.edu     
Processor information: 1 socket(s), 12 core(s), and 24 thread(s) available
GAMS 42.5.0   Copyright (C) 1987-2023 GAMS Development. All rights reserved
--- Starting compilation
--- dynamic_calib.gms(30) 2 Mb
--- . windc_coredata.gms(17) 2 Mb
--- GDXin=h:\windc\github\windc_build\core\WiNDCdatabase.gdx
--- GDX File ($gdxIn) h:\windc\github\windc_build\core\WiNDCdatabase.gdx
--- . windc_coredata.gms(209) 202 Mb
--- dynamic_calib.gms(39) 202 Mb
--- GDXin=h:\windc\github\windc_build\household\gdx\capital_tax_rates.gdx
--- GDX File ($gdxIn) h:\windc\github\windc_build\household\gdx\capital_tax_rates.gdx
--- dynamic_calib.gms(59) 202 Mb
--- GDXin=h:\windc\github\windc_build\household\gdx\i0_2015.gdx
--- GDX File ($gdxIn) h:\windc\github\windc_build\household\gdx\i0_2015.gdx
--- dynamic_calib.gms(298) 202 Mb
--- Starting execution: elapsed 0:00:00.501
--- dynamic_calib.gms(238) 219 Mb
--- GDX File (execute_unload) h:\windc\github\windc_build\household\225b\totgdp.gdx
--- dynamic_calib.gms(239) 219 Mb
--- dynamic_calib.gms(437) 233 Mb
--- Generating QCP model sscalib
--- dynamic_calib.gms(438) 386 Mb
---   21,849 rows  543,151 columns  1,625,830 non-zeroes
---   1,190,508 nl-code  238,099 nl-non-zeroes
--- Range statistics (absolute non-zero finite values)
--- RHS       [min, max] : [ 4.129E-24, 8.300E+02] - Zero values observed as well
--- Bound     [min, max] : [ 9.873E-18, 1.666E+02] - Zero values observed as well
--- Matrix    [min, max] : [ 1.000E+00, 1.000E+00] - Zero values observed as well
--- dynamic_calib.gms(438) 367 Mb
--- Executing CPLEX (Solvelink=2): elapsed 0:00:10.228

IBM ILOG CPLEX   42.5.0 cf11b917 Mar 30, 2023          WEI x86 64bit/MS Window

--- GAMS/Cplex licensed for continuous and discrete problems.
--- GMO Q Extraction (ThreePass): 1.67s
--- GMO setup time: 1.69s
--- Space for names approximately 13.86 Mb
--- Use option 'names no' to turn use of names off
--- GMO memory 192.54 Mb (peak 200.32 Mb)
--- Dictionary memory 0.00 Mb
--- Cplex 22.1.1.0 link memory 10.61 Mb (peak 47.24 Mb)
--- Starting Cplex

Version identifier: 22.1.1.0 | 2022-11-27 | 9160aff4d
CPXPARAM_Advance                                 0
CPXPARAM_Threads                                 1
CPXPARAM_MIP_Display                             4
CPXPARAM_MIP_Pool_Capacity                       0
CPXPARAM_MIP_Tolerances_AbsMIPGap                0
Tried aggregator 1 time.
QP Presolve eliminated 51 rows and 3622 columns.
Aggregator did 392 substitutions.
Reduced QP has 21405 rows, 539137 columns, and 1074653 nonzeros.
Reduced QP objective Q matrix has 236329 nonzeros.
Presolve time = 0.28 sec. (176.71 ticks)
Parallel mode: none, using 1 thread for barrier
Number of nonzeros in lower triangle of A*A' = 535516
Using Approximate Minimum Degree ordering
Total time for automatic ordering = 0.03 sec. (31.29 ticks)
Summary statistics for Cholesky factor:
  Rows in Factor            = 21405
  Integer space required    = 292945
  Total non-zeros in factor = 980898
  Total FP ops to factor    = 83873254
 Itn      Primal Obj        Dual Obj  Prim Inf Upper Inf  Dual Inf          
   0   1.2236472e+14  -1.2236470e+14  2.58e+07  0.00e+00  4.92e+12
   1   4.4824824e+13  -4.4824815e+13  1.56e+07  0.00e+00  2.98e+12
   2   2.0948667e+13  -2.0948660e+13  1.07e+07  0.00e+00  2.04e+12
   3   6.4634075e+12  -6.4634013e+12  5.92e+06  0.00e+00  1.13e+12
   4   2.3011790e+12  -2.3011729e+12  3.53e+06  0.00e+00  6.75e+11
   5   5.5670759e+11  -5.5670325e+11  1.74e+06  0.00e+00  3.32e+11
   6   2.7259114e+11  -2.7258708e+11  1.22e+06  0.00e+00  2.32e+11
   7   5.4259465e+10  -5.4256431e+10  5.43e+05  0.00e+00  1.04e+11
   8   1.9769358e+10  -1.9767084e+10  3.28e+05  0.00e+00  6.25e+10
   9   3.3854075e+09  -3.3841639e+09  1.36e+05  0.00e+00  2.59e+10
  10   5.1257699e+08  -5.1194304e+08  5.27e+04  0.00e+00  1.01e+10
  11   2.0441871e+08  -2.0392092e+08  3.33e+04  0.00e+00  6.35e+09
  12   5.4914964e+07  -5.4533353e+07  1.72e+04  0.00e+00  3.28e+09
  13   9.6511909e+06  -9.4554803e+06  7.15e+03  0.00e+00  1.36e+09
  14   1.4115680e+06  -1.3387483e+06  2.68e+03  0.00e+00  5.11e+08
  15   6.4206460e+05  -5.9383610e+05  1.78e+03  0.00e+00  3.40e+08
  16   2.4523431e+05  -2.1637734e+05  1.07e+03  0.00e+00  2.04e+08
  17   9.4077760e+04  -7.7014390e+04  6.31e+02  0.00e+00  1.20e+08
  18   4.3364769e+04  -3.2415229e+04  4.04e+02  0.00e+00  7.72e+07
  19   1.9804941e+04  -1.3004355e+04  2.51e+02  0.00e+00  4.80e+07
  20   7.5566171e+03  -3.9589844e+03  1.33e+02  0.00e+00  2.54e+07
  21   3.8786439e+03  -1.6552583e+03  8.23e+01  0.00e+00  1.57e+07
  22   1.6606504e+03  -5.2579049e+02  4.21e+01  0.00e+00  8.03e+06
  23   1.0270328e+03  -2.7112094e+02  2.80e+01  0.00e+00  5.35e+06
  24   5.6370933e+02  -1.2040492e+02  1.64e+01  0.00e+00  3.14e+06
  25   3.0513529e+02  -5.4184225e+01  9.33e+00  0.00e+00  1.78e+06
  26   1.8210802e+02  -2.8308350e+01  5.72e+00  0.00e+00  1.09e+06
  27   9.5060957e+01  -1.3109723e+01  3.06e+00  0.00e+00  5.84e+05
  28   5.9717448e+01  -7.6027681e+00  1.95e+00  0.00e+00  3.72e+05
  29   3.3485442e+01  -3.9705418e+00  1.10e+00  0.00e+00  2.11e+05
  30   2.0421741e+01  -2.2814588e+00  6.80e-01  0.00e+00  1.30e+05
  31   1.0313201e+01  -1.1032388e+00  3.46e-01  0.00e+00  6.61e+04
  32   6.4029397e+00  -6.5619624e-01  2.16e-01  0.00e+00  4.13e+04
  33   3.5228541e+00  -3.4763205e-01  1.20e-01  0.00e+00  2.29e+04
  34   1.9884764e+00  -1.8886901e-01  6.81e-02  0.00e+00  1.30e+04
  35   8.3304763e-01  -7.7816664e-02  2.86e-02  0.00e+00  5.46e+03
  36   3.3987286e-01  -3.0261563e-02  1.17e-02  0.00e+00  2.23e+03
  37   1.6008605e-01  -1.2396585e-02  5.47e-03  0.00e+00  1.04e+03
  38   6.9540343e-02  -3.4485334e-03  2.33e-03  0.00e+00  4.44e+02
  39   2.6157982e-02   8.6337042e-04  8.06e-04  0.00e+00  1.54e+02
  40   1.2155827e-02   2.3383562e-03  3.14e-04  0.00e+00  5.99e+01
  41   6.1192418e-03   2.9892266e-03  1.00e-04  0.00e+00  1.91e+01
  42   4.3492230e-03   3.1914981e-03  3.71e-05  0.00e+00  7.08e+00
  43   3.6407849e-03   3.2742792e-03  1.17e-05  0.00e+00  2.24e+00
  44   3.4089671e-03   3.3022198e-03  3.42e-06  0.00e+00  6.53e-01
  45   3.3303050e-03   3.3119300e-03  5.86e-07  0.00e+00  1.12e-01
  46   3.3145425e-03   3.3139776e-03  1.70e-08  0.00e+00  3.25e-03

Warning:  Barrier optimality criterion affected by large objective shift.
Barrier time = 3.00 sec. (7849.07 ticks)

Total time on 1 threads = 3.00 sec. (7849.07 ticks)

--- QP status (1): optimal.
--- Cplex Time: 3.00sec (det. 7849.07 ticks)


Optimal solution found
Objective:            0.003315

--- Reading solution for model sscalib
--- Executing after solve: elapsed 0:00:23.939
--- dynamic_calib.gms(506) 372 Mb
--- GDX File (execute_unload) h:\windc\github\windc_build\household\gdx\dynamic_parameters_2015.gdx
*** Status: Normal completion
--- Job dynamic_calib.gms Stop 06/08/23 15:55:32 elapsed 0:00:26.280
